p tw 69 78
1 2
2 3
11 12
11 63
12 13
13 14
14 15
15 16
16 17
17 18
18 19
18 26
19 20
20 21
3 4
21 22
22 23
23 24
24 25
26 27
27 28
28 29
29 30
29 37
30 31
4 5
31 32
32 33
33 34
34 35
35 36
37 38
38 39
39 40
40 41
5 6
41 42
41 44
42 43
42 44
43 44
43 63
44 45
45 46
46 47
47 48
47 51
48 49
49 50
50 60
6 25
6 36
6 7
6 62
6 67
51 52
52 53
52 56
53 54
54 55
55 60
56 57
57 58
57 60
58 59
59 60
60 61
7 8
61 62
63 64
64 65
65 66
66 67
68 69
8 9
9 68
9 10
10 11
